instances/ampl_instances/ss_inst_2b_92n.dat
param set_len = 92;
param target_sum = 57;
param values := [1] 3 [2] 0 [3] 2 [4] 0 [5] 2 [6] 0 [7] 1 [8] 1 [9] 3 [10] 0 [11] 3 [12] 0 [13] 1 [14] 0 [15] 3 [16] 1 [17] 3 [18] 1 [19] 0 [20] 1 [21] 0 [22] 0 [23] 2 [24] 3 [25] 1 [26] 1 [27] 0 [28] 2 [29] 2 [30] 2 [31] 2 [32] 0 [33] 0 [34] 2 [35] 1 [36] 1 [37] 0 [38] 0 [39] 1 [40] 3 [41] 1 [42] 0 [43] 1 [44] 3 [45] 3 [46] 3 [47] 1 [48] 3 [49] 0 [50] 3 [51] 3 [52] 3 [53] 0 [54] 2 [55] 1 [56] 0 [57] 3 [58] 3 [59] 0 [60] 2 [61] 2 [62] 3 [63] 0 [64] 1 [65] 3 [66] 0 [67] 1 [68] 2 [69] 3 [70] 2 [71] 3 [72] 1 [73] 3 [74] 0 [75] 1 [76] 1 [77] 0 [78] 3 [79] 3 [80] 0 [81] 0 [82] 3 [83] 2 [84] 2 [85] 1 [86] 0 [87] 3 [88] 2 [89] 3 [90] 1 [91] 0 [92] 0 ;
