Project4/outputs/ilp_integrality_fix/ss_inst_2b_92n.out
_solve_elapsed_time = 0.670504

calculated_sum = 57

target_sum = 57

set_len = 92

x [*] :=
 1 1   10 0   19 0   28 0   37 0   46 0   55 0   64 0   73 1   82 0   91 0
 2 0   11 1   20 0   29 0   38 0   47 0   56 0   65 1   74 0   83 0   92 0
 3 0   12 0   21 0   30 0   39 0   48 1   57 0   66 0   75 0   84 0
 4 0   13 0   22 0   31 0   40 1   49 0   58 1   67 0   76 0   85 0
 5 0   14 0   23 0   32 0   41 0   50 1   59 0   68 0   77 0   86 0
 6 0   15 1   24 1   33 0   42 0   51 1   60 0   69 1   78 0   87 0
 7 0   16 0   25 0   34 0   43 0   52 1   61 0   70 0   79 0   88 0
 8 0   17 1   26 0   35 0   44 1   53 0   62 1   71 1   80 0   89 0
 9 1   18 0   27 0   36 0   45 1   54 0   63 0   72 0   81 0   90 0
;

